18438
1 0 1 0 0 1 1 0 0 0 0 1 0 0 1 1 0 1 0 0 1 0 0 0 0 0 0 0 0 0 
20 0 6 2 6 5 2 11 20 11 5 20 20 20 2 20 14 17 5 11 2 0 5 2 5 20 2 11 5 5 5 11 6 14 20 20 11 15 2 14 0 14 15 6 15 14 2 20 11 14 5 2 14 11 6 20 14 0 0 14 0 11 20 0 11 11 5 0 5 5 6 6 11 17 15 20 5 20 20 5 20 0 20 11 0 17 17 0 20 5 17 15 17 0 0 5 14 6 0 6 20 0 14 11 17 11 0 0 14 20 14 0 14 11 11 0 11 15 11 11 11 20 11 20 6 0 5 5 0 20 11 0 11 0 20 14 0 14 20 17 0 20 20 14 20 14 11 11 17 11 